20
3
20387
414 420 122
false
0.25
5 45 13 13 45 8 4 10 20 45 14 24 39 10 4 3 31 43 43 16
41 38 21 37 31 8 7 49 11 1 30 39 1 5 39 37 28 25 11 38
46 11 10 17 18 39 45 9 41 25 40 37 40 18 35 34 31 29 33 8
10 23 2 94 72 94 13 4 76 99 88 87 66 11 21 33 32 27 81 51
0 58 0 0 0 42 0 0 0 0 0 0 0 0 0 0 0 0 61 5
0 0 0 64 31 0 0 62 0 0 13 46 0 0 0 0 0 0 0
0 70 0 0 0 4 77 0 0 0 0 84 0 0 32 83 0 0
0 0 0 0 0 0 0 27 23 0 73 0 0 0 64 0 0
0 0 0 0 33 0 75 0 0 0 0 0 0 0 45 0
0 0 0 0 0 0 0 17 0 6 0 0 65 0 0
0 52 0 0 0 0 0 0 0 44 11 0 60 0
0 0 17 5 0 0 0 0 0 0 0 0 0
0 10 0 0 0 0 7 6 0 0 0 0
0 27 0 0 10 0 49 0 0 0 0
0 0 0 46 0 31 0 60 0 23
0 0 0 0 0 0 0 0 94
0 0 0 64 0 0 0 0
0 0 0 0 0 0 0
0 0 0 12 0 0
0 0 0 0 0
0 0 62 0
0 0 0
0 0
0 0 72 0 15 0 0 0 0 0 41 28 74 0 73 0 0 0 0
0 0 0 0 0 23 0 0 0 66 85 0 0 0 0 0 0 0
0 0 0 0 0 0 89 0 0 0 0 0 0 0 0 0 0
0 0 0 0 14 0 0 0 0 0 0 0 0 73 98 0
0 0 0 0 0 0 0 73 0 0 45 0 0 0 0
0 96 0 88 52 100 0 0 0 0 0 0 0 15
0 0 0 0 0 0 0 61 0 0 4 0 0
0 0 0 7 79 0 90 73 0 0 0 74
0 0 0 82 0 70 0 0 36 0 0
0 0 53 0 0 68 42 0 38 0
0 0 0 0 0 0 0 0 8
0 0 3 46 87 0 0 8
0 66 0 0 96 0 0
0 0 69 98 60 81
0 0 0 0 0
0 0 0 0
0 0 0
0 0
0
0 11 0 0 0 0 0 0 0 51 2 0 0 0 46 0 0 0
0 0 0 0 0 0 6 0 0 0 0 0 0 69 0 36 0
0 34 0 0 0 41 0 0 0 0 51 0 74 0 0 0
0 6 0 36 0 0 94 0 0 0 0 0 0 28 0
0 0 0 0 0 87 0 0 88 4 84 0 0 62
0 0 0 0 0 0 0 0 0 96 0 3 0
0 0 97 0 0 0 0 0 0 0 0 0
0 0 15 0 0 62 0 7 0 90 0
0 40 0 0 0 0 0 0 0 0
0 0 0 0 0 0 65 4 0
0 0 0 0 73 0 28 64
0 0 0 0 88 0 0
0 0 0 0 0 36
0 0 0 0 0
0 0 0 0
0 0 0
0 0
0
0 0 0 0 91 0 0 0 0 0 77 0 0 0 0 0 0
0 0 30 0 0 86 0 0 32 0 0 0 88 0 95 0
0 0 0 52 0 5 0 94 67 0 0 71 0 0 0
0 0 0 0 0 0 0 0 0 0 0 0 31 0
0 18 0 0 43 13 0 0 70 0 0 0 0
0 0 0 16 0 0 56 12 0 0 0 37
0 0 52 0 0 0 0 0 0 22 0
0 13 0 0 0 0 0 0 0 62
0 0 0 0 0 0 0 0 75
0 35 0 0 67 29 55 0
0 86 0 0 0 0 46
0 0 24 0 0 54
0 0 54 0 0
0 36 0 74
0 0 0
0 74
0
0 0 0 0 0 0 0 64 0 0 0 0 94 16 0 0
0 0 0 0 0 0 0 0 0 0 0 0 0 0 0
0 0 0 0 0 86 0 0 0 75 0 0 0 0
0 0 0 0 0 0 67 5 0 46 0 73 70
0 0 73 0 0 27 0 0 81 5 0 0
0 0 0 69 0 55 0 0 0 0 0
0 91 0 0 0 47 0 5 0 0
0 74 100 0 0 0 0 2 0
0 0 0 18 16 0 0 73
0 0 0 0 0 0 0
0 0 0 60 0 11
0 0 0 0 27
0 0 23 0
0 0 0
0 0
0
0 0 0 0 85 0 0 0 0 0 0 0 0 0 58
0 81 79 0 0 0 0 0 0 0 0 0 54 93
0 60 67 0 0 0 0 0 0 17 20 0 44
0 25 14 0 0 82 0 0 0 0 0 0
0 41 46 25 0 71 0 69 0 70 0
0 0 0 0 0 36 82 0 84 0
0 0 0 0 0 0 93 0 94
0 0 0 0 0 0 0 0
0 9 84 0 0 0 0
0 0 0 0 0 0
0 0 0 88 0
0 0 0 0
0 0 0
0 0
0
0 0 0 0 49 0 23 0 0 16 0 0 0 0
0 74 0 0 0 67 58 0 78 47 48 13 0
0 0 0 3 0 0 0 0 3 69 22 0
0 0 0 0 0 0 80 0 0 0 0
0 0 0 0 0 0 0 0 0 0
0 0 0 0 0 0 0 0 0
0 0 0 0 0 39 0 0
0 0 0 20 0 0 37
0 0 6 0 0 13
0 0 0 67 0
0 0 0 65
0 0 36
0 0
0
0 0 53 0 0 0 0 0 0 0 0 0 80
0 35 85 42 0 90 0 0 9 0 74 0
0 0 75 0 95 0 0 0 0 42 0
0 80 58 0 0 0 0 11 0 0
0 0 0 0 0 18 30 0 0
0 0 0 0 0 0 0 0
0 100 0 6 0 0 0
0 0 0 0 0 0
0 0 0 0 0
0 0 76 37
0 0 0
0 0
0
0 4 0 0 0 0 12 0 0 0 69 0
0 5 0 0 0 0 0 71 0 0 0
0 0 0 40 0 0 0 27 39 52
0 0 0 0 31 0 0 84 60
0 0 56 0 0 0 0 0
0 0 0 0 0 0 0
0 72 22 49 0 72
0 0 0 0 100
0 0 0 86
0 0 60
0 41
0
0 0 79 0 0 6 0 0 0 0 0
0 30 12 21 21 0 0 0 74 0
0 0 0 0 0 50 33 0 0
0 0 0 0 0 0 0 0
0 83 0 0 0 24 0
0 0 0 0 0 77
0 0 0 0 0
0 0 80 14
0 0 0
0 0
0
0 0 0 0 0 0 0 0 0 0
0 37 0 22 0 0 69 47 0
0 84 0 0 0 0 0 0
0 0 0 0 31 0 0
0 0 83 34 0 13
0 0 0 0 0
0 18 0 0
0 0 0
0 0
0
0 0 0 8 0 0 9 0 0
0 0 0 0 0 0 0 0
0 0 0 0 4 0 0
0 0 37 0 0 48
0 0 0 54 0
0 11 0 0
0 0 0
0 0
0
0 0 0 0 21 0 0 30
0 28 0 0 52 0 0
0 10 8 0 0 0
0 56 0 7 0
0 0 0 0
0 0 0
0 0
0
0 0 12 0 0 0 0
0 48 0 0 0 0
0 0 0 40 0
0 58 0 0
0 11 0
0 0
0
0 30 0 0 0 9
0 0 0 0 0
0 2 0 38
0 33 0
0 0
0
0 17 23 0 85
0 0 0 0
0 0 59
0 0
0
0 18 0 45
0 0 0
0 0
0
0 0 0
0 0
0
0 0
0
0
2795 2278 2578 2255 2850 1951 2575 2720 2573 2564 2100 2663 2100 2125 2463 1936 2594 1923 2262 2570
229.31053375751148 105.88683324472798 192.9565323565324 122.35151441033793 104.53405017921148 179.258547008547 356.27645502645504 209.91080876795164 141.77172949002218 907.8459259259258 90.83333333333333 83.73778586278586 735.4487179487179 251.85185185185185 249.75842490842493 251.53294470941532 86.66589861751152 62.65042502004811 108.92882311486962 183.16885964912282
